NAME : kroD100-R-5-3-a.25624.tour
COMMENT : Length = 25624
COMMENT : Found by LKH-3 [Keld Helsgaun] Tue Jul 30 13:14:56 2024
TYPE : TOUR
DIMENSION : 100
TOUR_SECTION
1
50
17
94
32
97
98
49
70
42
23
38
34
81
27
13
79
73
71
4
93
44
60
53
62
37
19
51
35
30
100
2
48
92
55
10
21
20
18
85
96
86
65
78
31
57
72
61
74
7
75
67
36
29
58
22
89
90
11
66
8
52
46
76
80
99
45
33
68
14
82
25
47
12
28
56
95
26
87
9
5
3
83
40
6
59
64
43
77
16
63
54
91
39
15
69
84
41
24
88
-1
EOF
